31 31
19
12 31 0 0
3 31 12 0
3 22 15 0
4 13 18 0
3 14 18 13
3 13 21 13
3 12 28 0
3 11 24 20
4 8 27 20
3 10 22 0
4 7 24 13
3 9 15 22
3 8 28 12
3 7 25 0
3 6 25 7
3 5 21 26
4 3 27 28
3 4 18 27
3 3 22 10
